c generated by sgen3tocnf
c nLits = 639
c actual nVars = 213
c Command: sgen3tocnf 72 15 0 0 216 3 1 0 /dev/null
p cnf 216 285
-190 -88 0
-190 -109 0
-88 -109 0
-202 -211 0
-202 -157 0
-211 -157 0
-22 -163 0
-22 -199 0
-163 -199 0
-61 -70 0
-61 -187 0
-70 -187 0
-136 -37 0
-136 -94 0
-37 -94 0
-169 -130 0
-169 -100 0
-130 -100 0
-127 -158 0
-127 -164 0
-158 -164 0
-31 -166 0
-31 -203 0
-166 -203 0
-154 -214 0
-154 -28 0
-214 -28 0
-110 -175 0
-110 -82 0
-175 -82 0
-79 -62 0
-79 -34 0
-62 -34 0
-115 -137 0
-115 -176 0
-137 -176 0
-101 -191 0
-101 -205 0
-191 -205 0
-167 -67 0
-167 -80 0
-67 -80 0
-133 -148 0
-133 -13 0
-148 -13 0
-172 -32 0
-172 -25 0
-32 -25 0
-159 -23 0
-159 -1 0
-23 -1 0
-193 -160 0
-193 -64 0
-160 -64 0
-85 -29 0
-85 -103 0
-29 -103 0
-177 -86 0
-177 -46 0
-86 -46 0
-35 -77 0
-35 -138 0
-77 -138 0
-200 -102 0
-200 -63 0
-102 -63 0
-14 -178 0
-14 -89 0
-178 -89 0
-19 -151 0
-19 -142 0
-151 -142 0
-49 -145 0
-49 -33 0
-145 -33 0
-73 -181 0
-73 -20 0
-181 -20 0
-139 -204 0
-139 -24 0
-204 -24 0
-182 -188 0
-182 -128 0
-188 -128 0
-90 -121 0
-90 -71 0
-121 -71 0
-7 -112 0
-7 -116 0
-112 -116 0
-26 -111 0
-26 -125 0
-111 -125 0
-30 -196 0
-30 -113 0
-196 -113 0
-43 -27 0
-43 -68 0
-27 -68 0
-72 -155 0
-72 -8 0
-155 -8 0
-95 -52 0
-95 -183 0
-52 -183 0
-91 -206 0
-91 -53 0
-206 -53 0
-38 -44 0
-38 -122 0
-44 -122 0
-10 -21 0
-10 -156 0
-21 -156 0
-208 -92 0
-208 -161 0
-92 -161 0
-212 -194 0
-212 -74 0
-194 -74 0
-83 -81 0
-83 -11 0
-81 -11 0
-2 -58 0
-2 -134 0
-58 -134 0
-114 -47 0
-114 -93 0
-47 -93 0
-197 -15 0
-197 -97 0
-15 -97 0
-143 -4 0
-143 -195 0
-4 -195 0
-55 -12 0
-55 -173 0
-12 -173 0
-149 -50 0
-149 -213 0
-50 -213 0
-59 -144 0
-59 -215 0
-144 -215 0
-118 -201 0
-118 -150 0
-201 -150 0
-162 -135 0
-162 -192 0
-135 -192 0
-69 -96 0
-69 -152 0
-96 -152 0
-165 -106 0
-165 -5 0
-106 -5 0
-131 -98 0
-131 -56 0
-98 -56 0
-40 -9 0
-40 -132 0
-9 -132 0
-107 -209 0
-107 -39 0
-209 -39 0
-48 -36 0
-48 -170 0
-36 -170 0
-179 -184 0
-179 -41 0
-184 -41 0
-126 -119 0
-126 -185 0
-119 -185 0
-123 -171 0
-123 -51 0
-171 -51 0
-153 -84 0
-153 -120 0
-84 -120 0
-104 -117 0
-104 -168 0
-117 -168 0
-54 -174 0
-54 -210 0
-174 -210 0
-207 -105 0
-207 -146 0
-105 -146 0
-216 -3 0
-216 -180 0
-3 -180 0
-186 -129 0
-186 -17 0
-129 -17 0
-189 -65 0
-189 -60 0
-65 -60 0
-147 -18 0
-147 -198 0
-18 -198 0
-78 -75 0
-78 -108 0
-75 -108 0
-66 -57 0
-66 -87 0
-57 -87 0
-99 -140 0
-99 -45 0
-140 -45 0
-6 -42 0
-6 -141 0
-42 -141 0
2 3 1 0
6 4 5 0
7 9 8 0
10 12 11 0
14 15 13 0
18 17 0
19 21 20 0
22 23 24 0
26 27 25 0
30 29 28 0
31 32 33 0
35 36 34 0
38 37 39 0
40 42 41 0
43 44 45 0
48 47 46 0
49 50 51 0
54 52 53 0
55 57 56 0
59 58 60 0
61 62 63 0
66 65 64 0
69 67 68 0
72 70 71 0
73 75 74 0
78 77 0
79 81 80 0
83 84 82 0
85 86 87 0
90 88 89 0
91 92 93 0
95 96 94 0
99 98 97 0
101 102 100 0
104 105 103 0
107 106 108 0
110 111 109 0
114 112 113 0
115 117 116 0
118 119 120 0
123 121 122 0
126 125 0
127 129 128 0
131 130 132 0
133 135 134 0
136 137 138 0
139 140 141 0
143 144 142 0
147 145 146 0
149 148 150 0
153 151 152 0
154 155 156 0
159 158 157 0
162 160 161 0
165 163 164 0
167 166 168 0
169 171 170 0
172 174 173 0
177 175 176 0
179 178 180 0
182 181 183 0
186 184 185 0
189 188 187 0
190 191 192 0
193 194 195 0
197 196 198 0
200 201 199 0
202 204 203 0
207 206 205 0
208 209 210 0
212 211 213 0
216 214 215 0
